c 
c G(k,n,p) graph
c graph gen seed     : 12365
c number of vertices : 70
c max number of edges: 1225
c number of classes  : 2
c edge density       : 0.300000
c edge probability   : 0.600000
c data structure     : dense
c
c           Graph Stats
c number of vertices  : 70
c nonisolated vertices: 70
c number of edges     : 698
c edge density        : 0.289027
c max degree          : 32
c avg degree          : 19.94
c min degree          : 12
p col 70 698
e 1 3
e 1 8
e 1 9
e 1 10
e 1 12
e 1 16
e 1 19
e 1 22
e 1 23
e 1 27
e 1 29
e 1 30
e 1 31
e 1 34
e 1 35
e 1 40
e 1 43
e 1 48
e 1 64
e 1 69
e 1 70
e 2 4
e 2 15
e 2 20
e 2 36
e 2 39
e 2 41
e 2 44
e 2 45
e 2 47
e 2 51
e 2 53
e 2 54
e 2 55
e 2 56
e 2 57
e 2 58
e 2 59
e 2 60
e 2 62
e 2 63
e 2 66
e 2 67
e 2 68
e 3 11
e 3 13
e 3 14
e 3 24
e 3 25
e 3 26
e 3 32
e 3 33
e 3 36
e 3 38
e 3 39
e 3 41
e 3 42
e 3 45
e 3 46
e 3 47
e 3 49
e 3 50
e 3 53
e 3 58
e 3 59
e 3 60
e 3 63
e 3 65
e 3 66
e 3 67
e 3 68
e 4 5
e 4 7
e 4 9
e 4 10
e 4 16
e 4 19
e 4 22
e 4 31
e 4 35
e 4 37
e 4 43
e 4 48
e 4 61
e 4 64
e 5 6
e 5 13
e 5 15
e 5 17
e 5 24
e 5 26
e 5 33
e 5 38
e 5 39
e 5 41
e 5 42
e 5 45
e 5 46
e 5 47
e 5 49
e 5 50
e 5 51
e 5 52
e 5 55
e 5 57
e 5 58
e 5 60
e 5 62
e 5 65
e 5 66
e 6 7
e 6 8
e 6 9
e 6 10
e 6 16
e 6 18
e 6 19
e 6 22
e 6 23
e 6 27
e 6 29
e 6 30
e 6 34
e 6 35
e 6 43
e 6 61
e 6 64
e 6 69
e 7 13
e 7 15
e 7 17
e 7 20
e 7 21
e 7 24
e 7 26
e 7 28
e 7 32
e 7 33
e 7 36
e 7 41
e 7 44
e 7 45
e 7 51
e 7 52
e 7 53
e 7 54
e 7 55
e 7 56
e 7 57
e 7 60
e 7 62
e 7 63
e 7 67
e 7 68
e 8 15
e 8 21
e 8 24
e 8 25
e 8 26
e 8 28
e 8 33
e 8 36
e 8 39
e 8 41
e 8 44
e 8 45
e 8 46
e 8 49
e 8 53
e 8 54
e 8 55
e 8 57
e 8 58
e 8 59
e 8 63
e 8 66
e 9 11
e 9 14
e 9 20
e 9 21
e 9 24
e 9 26
e 9 28
e 9 32
e 9 33
e 9 36
e 9 42
e 9 45
e 9 47
e 9 50
e 9 51
e 9 52
e 9 53
e 9 54
e 9 58
e 9 65
e 9 66
e 9 68
e 10 13
e 10 14
e 10 17
e 10 20
e 10 21
e 10 25
e 10 26
e 10 32
e 10 36
e 10 38
e 10 39
e 10 42
e 10 45
e 10 47
e 10 50
e 10 52
e 10 53
e 10 58
e 10 59
e 10 60
e 10 62
e 10 63
e 10 67
e 11 12
e 11 16
e 11 18
e 11 23
e 11 27
e 11 30
e 11 34
e 11 35
e 11 37
e 11 40
e 11 43
e 11 48
e 11 61
e 11 64
e 11 69
e 11 70
e 12 13
e 12 14
e 12 17
e 12 20
e 12 21
e 12 24
e 12 26
e 12 28
e 12 32
e 12 36
e 12 38
e 12 39
e 12 42
e 12 44
e 12 45
e 12 46
e 12 47
e 12 52
e 12 53
e 12 54
e 12 55
e 12 56
e 12 63
e 12 65
e 12 66
e 13 16
e 13 18
e 13 19
e 13 29
e 13 30
e 13 31
e 13 34
e 13 37
e 13 40
e 13 43
e 13 48
e 13 64
e 13 70
e 14 16
e 14 18
e 14 19
e 14 22
e 14 23
e 14 27
e 14 35
e 14 37
e 14 40
e 14 61
e 14 69
e 14 70
e 15 16
e 15 18
e 15 19
e 15 22
e 15 23
e 15 29
e 15 31
e 15 35
e 15 61
e 15 70
e 16 17
e 16 21
e 16 25
e 16 26
e 16 32
e 16 36
e 16 39
e 16 44
e 16 45
e 16 50
e 16 51
e 16 52
e 16 53
e 16 55
e 16 56
e 16 58
e 16 59
e 16 60
e 16 62
e 16 63
e 16 65
e 16 66
e 16 67
e 16 68
e 17 18
e 17 19
e 17 22
e 17 23
e 17 27
e 17 29
e 17 30
e 17 35
e 17 37
e 17 43
e 17 48
e 17 69
e 17 70
e 18 21
e 18 25
e 18 26
e 18 28
e 18 32
e 18 33
e 18 38
e 18 41
e 18 42
e 18 44
e 18 45
e 18 49
e 18 50
e 18 51
e 18 54
e 18 55
e 18 56
e 18 60
e 18 63
e 18 66
e 18 68
e 19 20
e 19 25
e 19 28
e 19 36
e 19 39
e 19 44
e 19 49
e 19 52
e 19 53
e 19 54
e 19 57
e 19 58
e 19 60
e 19 62
e 19 63
e 19 67
e 20 31
e 20 35
e 20 37
e 20 40
e 20 61
e 20 69
e 20 70
e 21 23
e 21 29
e 21 30
e 21 31
e 21 34
e 21 40
e 21 43
e 21 48
e 21 69
e 21 70
e 22 25
e 22 28
e 22 32
e 22 33
e 22 36
e 22 41
e 22 44
e 22 45
e 22 46
e 22 50
e 22 52
e 22 54
e 22 56
e 22 58
e 22 59
e 22 60
e 22 62
e 22 63
e 22 66
e 23 24
e 23 25
e 23 26
e 23 28
e 23 32
e 23 33
e 23 36
e 23 38
e 23 45
e 23 46
e 23 49
e 23 50
e 23 51
e 23 54
e 23 55
e 23 56
e 23 57
e 23 58
e 23 60
e 23 62
e 23 65
e 23 66
e 23 67
e 24 27
e 24 29
e 24 30
e 24 31
e 24 34
e 24 35
e 24 37
e 24 61
e 24 69
e 24 70
e 25 27
e 25 29
e 25 31
e 25 35
e 25 40
e 25 48
e 25 70
e 26 27
e 26 30
e 26 31
e 26 34
e 26 35
e 26 37
e 26 40
e 26 43
e 26 48
e 26 61
e 26 64
e 26 69
e 26 70
e 27 28
e 27 33
e 27 36
e 27 41
e 27 44
e 27 49
e 27 50
e 27 51
e 27 52
e 27 55
e 27 59
e 27 60
e 27 62
e 27 63
e 27 65
e 27 66
e 27 67
e 27 68
e 28 29
e 28 30
e 28 31
e 28 34
e 28 35
e 28 48
e 28 70
e 29 39
e 29 41
e 29 42
e 29 45
e 29 46
e 29 50
e 29 52
e 29 53
e 29 55
e 29 56
e 29 58
e 29 59
e 29 60
e 29 63
e 29 68
e 30 32
e 30 36
e 30 38
e 30 41
e 30 42
e 30 45
e 30 50
e 30 51
e 30 53
e 30 54
e 30 56
e 30 57
e 30 59
e 30 62
e 30 63
e 30 66
e 30 67
e 30 68
e 31 32
e 31 33
e 31 36
e 31 38
e 31 39
e 31 41
e 31 42
e 31 44
e 31 45
e 31 46
e 31 47
e 31 49
e 31 56
e 31 57
e 31 59
e 31 60
e 31 63
e 31 65
e 31 66
e 32 34
e 32 37
e 32 43
e 32 61
e 33 34
e 33 35
e 33 43
e 33 64
e 33 69
e 34 36
e 34 38
e 34 39
e 34 42
e 34 45
e 34 46
e 34 47
e 34 49
e 34 51
e 34 52
e 34 53
e 34 55
e 34 56
e 34 57
e 34 65
e 34 66
e 34 67
e 34 68
e 35 36
e 35 38
e 35 39
e 35 42
e 35 46
e 35 49
e 35 50
e 35 51
e 35 53
e 35 54
e 35 56
e 35 57
e 35 58
e 35 60
e 35 62
e 35 63
e 35 65
e 35 67
e 35 68
e 36 43
e 36 48
e 36 61
e 36 64
e 36 70
e 37 39
e 37 41
e 37 42
e 37 46
e 37 49
e 37 50
e 37 52
e 37 53
e 37 54
e 37 55
e 37 57
e 37 58
e 37 63
e 37 65
e 37 67
e 38 40
e 38 48
e 38 64
e 38 69
e 39 40
e 39 43
e 39 48
e 39 61
e 39 64
e 39 69
e 39 70
e 40 44
e 40 47
e 40 49
e 40 51
e 40 53
e 40 56
e 40 57
e 40 58
e 40 63
e 40 65
e 41 48
e 41 61
e 41 64
e 41 69
e 42 48
e 42 64
e 42 69
e 43 44
e 43 45
e 43 46
e 43 47
e 43 49
e 43 54
e 43 55
e 43 56
e 43 57
e 43 58
e 43 60
e 43 65
e 43 66
e 44 48
e 44 64
e 44 69
e 45 48
e 45 70
e 46 48
e 46 61
e 46 64
e 46 69
e 46 70
e 47 48
e 47 61
e 47 69
e 48 49
e 48 54
e 48 55
e 48 62
e 48 63
e 48 65
e 49 61
e 49 69
e 49 70
e 50 61
e 50 64
e 51 61
e 52 64
e 52 70
e 53 61
e 53 69
e 53 70
e 54 61
e 54 70
e 56 64
e 57 61
e 57 70
e 58 61
e 58 69
e 59 61
e 59 70
e 60 61
e 60 69
e 60 70
e 61 62
e 61 63
e 61 65
e 61 66
e 62 69
e 62 70
e 63 69
e 64 68
e 65 70
e 67 69
e 67 70
e 68 70
